NAME: berlin52-20-1
TYPE: TSP
COMMENT: min_cost = 4882.24
DIMENSION: 20
EDGE_WEIGHT_TYPE: EUC_2D
NODE_COORD_SECTION
1 1740 245
2 555 815
3 1340 725
4 1250 400
5 145 665
6 1465 200
7 795 645
8 1215 245
9 580 1175
10 880 660
11 720 635
12 520 585
13 1320 315
14 1220 580
15 660 180
16 595 360
17 345 750
18 975 580
19 605 625
20 1605 620
EOF
